objective value:                                 -164
t_x17                                               1 	(obj:-100)
t_x22                                               1 	(obj:-100)
t_y22_154                                           1 	(obj:1)
t_y17_209                                           1 	(obj:1)
t_y22_157                                           1 	(obj:1)
t_y17_202                                           1 	(obj:1)
t_y22_30                                            1 	(obj:1)
t_y17_160                                           1 	(obj:1)
t_y22_69                                            1 	(obj:1)
t_y17_98                                            1 	(obj:1)
t_y17_244                                           1 	(obj:1)
t_y17_92                                            1 	(obj:1)
t_y17_194                                           1 	(obj:1)
t_y17_181                                           1 	(obj:1)
t_y22_198                                           1 	(obj:1)
t_y5_17                                             1 	(obj:1)
t_y17_126                                           1 	(obj:1)
t_y22_226                                           1 	(obj:1)
t_y17_63                                            1 	(obj:1)
t_y22_23                                            1 	(obj:1)
t_y17_28                                            1 	(obj:1)
t_y17_82                                            1 	(obj:1)
t_y22_144                                           1 	(obj:1)
t_y0_22                                             1 	(obj:1)
t_y22_47                                            1 	(obj:1)
t_y22_48                                            1 	(obj:1)
t_y9_17                                             1 	(obj:1)
t_y17_47                                            1 	(obj:1)
t_y22_44                                            1 	(obj:1)
t_y17_122                                           1 	(obj:1)
t_y22_49                                            1 	(obj:1)
t_y17_247                                           1 	(obj:1)
t_y17_169                                           1 	(obj:1)
t_y22_218                                           1 	(obj:1)
t_y22_94                                            1 	(obj:1)
t_y17_246                                           1 	(obj:1)
t_y22_174                                           1 	(obj:1)
t_y17_183                                           1 	(obj:1)
